examples/example.vrp
NAME : example
TYPE : CVRP
DIMENSION : 12
EDGE_WEIGHT_TYPE : EUC_2D
CAPACITY : 100
NODE_COORD_SECTION
1 23 45
2 34 67
3 45 89
4 56 12
5 67 34
6 78 56
7 89 78
8 12 23
9 23 34
10 34 45
11 45 56
12 56 67
DEMAND_SECTION
1 0
2 10
3 20
4 30
5 40
6 50
7 60
8 70
9 80
10 90
11 20
12 30
DEPOT_SECTION
1
-1
EOF