verypy/gui/frontend/examples/example.tsp
NAME: example.tsp
TYPE: TSP
COMMENT: Random Geo Coordinates Example
DIMENSION: 16
EDGE_WEIGHT_TYPE: GEO
DISPLAY_DATA_TYPE: COORD_DISPLAY
NODE_COORD_SECTION
 1 34.05 -118.25
 2 40.71 -74.01
 3 51.51 -0.13
 4 48.85 2.35
 5 35.68 139.69
 6 55.75 37.62
 7 39.90 116.40
 8 28.61 77.21
 9 -33.87 151.21
 10 37.77 -122.42
 11 52.52 13.40
 12 41.90 12.49
 13 19.43 -99.13
 14 35.68 139.76
 15 34.69 135.50
 16 40.73 -73.93
EOF